benchmarks_vrp/CMT5/min_c/CMT5_5.vrp
NAME: CMT5_5
TYPE: CVRP
COMMENT: 1291.29 - Cluster Nr.5
DIMENSION: 10
CAPACITY: 200
EDGE_WEIGHT_TYPE: EUC_2D
NODE_COORD_TYPE: TWOD_COORDS
NODE_COORD_SECTION: 
3 65 35
9 62 42
2 56 39
7 56 37
4 55 34
5 35 35
10 56 37
8 64 42
1 61 33
6 62 35
DEPOT_SECTION: 
5
-1
DEMAND_SECTION: 
4 17
2 36
8 9
10 6
1 26
3 3
5 0
9 8
6 12
7 10
EOF
