benchmarks_vrp/CMT5/min_c/CMT5_5.tour
NAME: CMT5_5 solution
TYPE: TOUR
TOUR_SECTION:
5 4 1 6 3 8 9 2 10 7 -1
-1
EOF